WARNING: for repeatability, setting FPU to use double precision
============================[ Problem Statistics ]=============================
|                                                                             |
|  Number of variables:           100                                         |
|  Number of clauses:             449                                         |
|  Parse time:                   0.00 s                                       |
|  Eliminated clauses:           0.00 Mb                                      |
|  Simplification time:          0.00 s                                       |
|                                                                             |
============================[ Search Statistics ]==============================
| Conflicts |          ORIGINAL         |          LEARNT          | Progress |
|           |    Vars  Clauses Literals |    Limit  Clauses Lit/Cl |          |
===============================================================================
|       100 |      99      440     1320 |      161      100      8 |  0.010 % |
|       250 |      99      440     1320 |      177      166      7 |  0.010 % |
===============================================================================
restarts              : 4
conflicts             : 436            (215948 /sec)
decisions             : 536            (0.00 % random) (265478 /sec)
propagations          : 10234          (5068846 /sec)
conflict literals     : 2860           (17.03 % deleted)
Memory used           : 13.00 MB
CPU time              : 0.002019 s

SATISFIABLE
